






































































































18 39 56 61 70 14 49 
68 73 76 55 15 5 10 
71 59 62 1 17 43 
2 63 29 52 46 37 
33 30 74 25 23 40 3 
66 34 69 22 58 53 
20 9 50 4 60 8 26 
6 41 24 31 38 7 0 
21 75 64 51 36 11 
45 35 13 32 16 65 42 
54 47 48 28 27 57 67 
19 12 44 72 
